27 6
21 23 28 23 21 18
1 0 0 0 0 0 0 3 2 3 4
5 2 2 7 6 8 2 3 6 7 8
1 3 1 7 9 3 5 4 5 27 7 8
1 1 9 9 4 4 8 3 6 7 8
4 3 8 2 1 4 9 4 9 10 11 12
1 7 1 6 5 5 3 4 9 10 11 12
1 6 6 7 3 5 2 4 9 10 11 12
10 3 10 6 5 8 3 4 9 10 11 12
1 8 10 10 5 5 2 4 13 14 15 16
9 3 1 4 7 4 3 4 13 14 15 16
2 6 2 9 10 2 7 4 13 14 15 16
1 3 10 10 5 7 1 4 13 14 15 16
10 7 7 10 9 5 3 4 17 18 19 20
2 4 7 8 3 3 7 4 17 18 19 20
5 3 6 5 10 6 2 4 17 18 19 20
5 10 2 5 3 2 8 4 17 18 19 20
1 3 5 8 9 6 2 4 21 22 23 24
7 8 10 7 10 8 5 4 21 22 23 24
6 1 5 7 8 2 6 3 21 22 24
1 7 10 8 1 7 2 3 21 23 24
3 5 3 8 1 6 3 2 25 26
4 7 7 1 9 3 8 1 25
1 9 4 6 2 5 1 2 25 26
1 1 3 9 1 6 10 1 25
1 8 6 7 5 6 2 1 27
7 10 6 3 7 10 7 1 27
0 0 0 0 0 0 0 0
